shifts = 6;
vehicles = 24;

% linearly increasing demand with low demand on Saturday
demand = array1d(WEEKDAYS, 
[ 
  5,   % MONDAY 
  5,   % TUESDAY
  6,   % WEDNESDAY
  6,   % THURSDAY
  7,   % FRIDAY
  3,   % SATURDAY
  0    % SUNDAY
]);

objectiveType = MIN_MAX_UNMET_DEMAND;
